0000000000000000
0000000000000000
0011111111100000
0010001111100000
0000000011110000
0000000001110000
0000000001110000
0000000001110000
0000000001110000
0000000001110000
0000000001110000
0000000001110000
0000000001110000
0011111111111111
0011111111111111
0000000000000000
